GLPSOL--GLPK LP/MIP Solver 5.0
Parameter(s) specified in the command line:
 --lp ../modeles/10_299.lp --log 10_299.log
Reading problem data from '../modeles/10_299.lp'...
3031 rows, 6000 columns, 20980 non-zeros
2990 integer variables, all of which are binary
9047 lines were read
GLPK Integer Optimizer 5.0
3031 rows, 6000 columns, 20980 non-zeros
2990 integer variables, all of which are binary
Preprocessing...
2940 constraint coefficient(s) were reduced
3031 rows, 5990 columns, 20970 non-zeros
2990 integer variables, all of which are binary
Scaling...
 A: min|aij| =  4.474e-05  max|aij| =  4.000e+00  ratio =  8.940e+04
GM: min|aij| =  5.783e-02  max|aij| =  1.729e+01  ratio =  2.990e+02
EQ: min|aij| =  3.344e-03  max|aij| =  1.000e+00  ratio =  2.990e+02
2N: min|aij| =  2.864e-03  max|aij| =  1.766e+00  ratio =  6.167e+02
Constructing initial basis...
Size of triangular part is 3031
Solving LP relaxation...
GLPK Simplex Optimizer 5.0
3031 rows, 5990 columns, 20970 non-zeros
      0: obj =   2.000000000e+01 inf =   4.950e+01 (21)
    189: obj =   4.997818792e-01 inf =   0.000e+00 (0)
*   535: obj =  -3.161946070e+00 inf =   1.987e-14 (0)
OPTIMAL LP SOLUTION FOUND
Integer optimization begins...
Long-step dual simplex will be used
+   535: mip =     not found yet >=              -inf        (1; 0)
+   683: >>>>>  -3.161946070e+00 >=  -3.161946070e+00 < 0.1% (145; 0)
+   683: mip =  -3.161946070e+00 >=     tree is empty   0.0% (0; 289)
INTEGER OPTIMAL SOLUTION FOUND
Time used:   0.7 secs
Memory used: 8.7 Mb (9079756 bytes)
